(set-info :Origin "This instance was generated by: BanditFuzz-- an RL fuzzer for SMT solvers" )
(set-info :Author "Joe Scott, Fed Mora, Vijay Ganesh" )
(set-info :Contact "Joe Scott, joseph.scott@uwaterloo.ca")
(set-logic QF_BV)
(declare-const bool_0 Bool)
(declare-const bool_1 Bool)
(declare-const bool_2 Bool)
(declare-const bool_3 Bool)
(declare-const bool_4 Bool)
(declare-const bv_0 (_ BitVec 32))
(declare-const bv_1 (_ BitVec 32))
(declare-const bv_2 (_ BitVec 32))
(declare-const bv_3 (_ BitVec 32))
(declare-const bv_4 (_ BitVec 32))
(assert (and (and (bvsle bv_1 bv_1) (bvuge #x8f683f93  #xccb1daa9 )) (and (bvuge #xee6c5c33  #x09f579b6 ) (bvslt bv_2 #xf4ad2efe ))))
(assert (xor (bvuge (bvxnor bv_2 #xb5aa291e ) (bvsub #xdb9745a4  bv_0)) (bvuge (bvsmod #x40faf652  #x4f23666f ) (bvand #x5d8ebbe7  bv_0))))
(assert (or (not (bvsgt bv_2 #x0947ea0a )) (bvsge (bvshl bv_2 bv_4) (bvxor bv_4 bv_3))))
(assert (and (xor (not true) (bvslt bv_3 bv_4)) (bvsge (bvmul #x2189e9cf  #x3f208782 ) (bvmul #x199c9201  bv_2))))
(assert (bvsgt (bvor (bvxnor bv_1 bv_4) (bvmul bv_3 bv_3)) (bvmul (bvsmod bv_0 #x33678294 ) (bvnor bv_2 bv_4))))
(check-sat)
(exit)
